NAME : traveling-santa-2018-prime-paths.29736.tour
COMMENT : Length = 29736
COMMENT : Found by LKH [Keld Helsgaun] Sun Jun 12 20:00:18 2022
TYPE : TOUR
DIMENSION : 100
TOUR_SECTION
1
69
73
34
13
92
17
8
29
42
37
24
66
41
10
39
3
72
26
2
80
49
14
61
21
51
77
45
68
5
9
18
28
91
43
88
36
44
30
84
70
31
63
67
60
4
38
23
64
95
40
78
33
74
98
48
55
20
62
100
87
58
59
11
85
76
19
50
75
79
32
47
6
86
35
53
97
25
82
96
90
12
83
89
52
15
54
81
56
46
27
16
94
65
71
57
99
22
7
93
-1
EOF
